networks/zoo_32_84/zoo_32_84-lower.sol
<?xml version = "1.0" encoding="UTF-8" standalone="yes"?>
<CPLEXSolution version="1.2">
 <header
   problemName="networks/zoo_32_84/zoo_32_84-lower.lp"
   solutionName="incumbent"
   solutionIndex="-1"
   objectiveValue="13"
   solutionTypeValue="3"
   solutionTypeString="primal"
   solutionStatusValue="101"
   solutionStatusString="integer optimal solution"
   solutionMethodString="mip"
   primalFeasible="1"
   dualFeasible="1"
   MIPNodes="0"
   MIPIterations="0"
   writeLevel="3"/>
 <quality
   epInt="1.0000000000000001e-05"
   epRHS="9.9999999999999995e-07"
   maxIntInfeas="0"
   maxPrimalInfeas="0"
   maxX="1"
   maxSlack="1"/>
 <variables>
  <variable name="Y(1,10)" index="9" value="1"/>
  <variable name="Y(2,12)" index="39" value="1"/>
  <variable name="Y(3,1)" index="56" value="1"/>
  <variable name="Y(4,4)" index="87" value="1"/>
  <variable name="Y(5,5)" index="116" value="1"/>
  <variable name="Y(7,11)" index="178" value="1"/>
  <variable name="Y(9,13)" index="236" value="1"/>
  <variable name="Y(10,14)" index="265" value="1"/>
  <variable name="Y(11,15)" index="294" value="1"/>
  <variable name="Y(39,3)" index="1066" value="1"/>
  <variable name="Y(42,7)" index="1154" value="1"/>
  <variable name="Y(43,8)" index="1183" value="1"/>
  <variable name="Y(44,9)" index="1212" value="1"/>
  <variable name="X(1,15,1)" index="2352" value="1"/>
  <variable name="X(1,18,3)" index="2438" value="1"/>
  <variable name="X(2,14,3)" index="2522" value="1"/>
  <variable name="X(3,20,39)" index="2642" value="1"/>
  <variable name="X(4,15,12)" index="2699" value="1"/>
  <variable name="X(4,21,4)" index="2775" value="1"/>
  <variable name="X(5,10,14)" index="2869" value="1"/>
  <variable name="X(5,22,5)" index="2944" value="1"/>
  <variable name="X(6,10,16)" index="3039" value="1"/>
  <variable name="X(7,12,25)" index="3132" value="1"/>
  <variable name="X(7,24,42)" index="3233" value="1"/>
  <variable name="X(8,14,34)" index="3309" value="1"/>
  <variable name="X(8,25,43)" index="3402" value="1"/>
  <variable name="X(9,14,36)" index="3479" value="1"/>
  <variable name="X(9,26,44)" index="3571" value="1"/>
  <variable name="X(10,5,5)" index="3616" value="1"/>
  <variable name="X(10,14,15)" index="3710" value="1"/>
  <variable name="X(10,27,1)" index="3780" value="1"/>
  <variable name="X(11,28,7)" index="3870" value="1"/>
  <variable name="X(12,7,42)" index="3989" value="1"/>
  <variable name="X(12,11,29)" index="4060" value="1"/>
  <variable name="X(12,13,9)" index="4124" value="1"/>
  <variable name="X(12,14,25)" index="4224" value="1"/>
  <variable name="X(12,29,2)" index="4285" value="1"/>
  <variable name="X(13,12,57)" index="4424" value="1"/>
  <variable name="X(13,30,9)" index="4460" value="1"/>
  <variable name="X(14,3,39)" index="4574" value="1"/>
  <variable name="X(14,8,43)" index="4662" value="1"/>
  <variable name="X(14,9,44)" index="4747" value="1"/>
  <variable name="X(14,10,1)" index="4788" value="1"/>
  <variable name="X(14,11,7)" index="4878" value="1"/>
  <variable name="X(14,12,2)" index="4957" value="1"/>
  <variable name="X(14,15,3)" index="5042" value="1"/>
  <variable name="X(14,31,10)" index="5133" value="1"/>
  <variable name="X(15,1,3)" index="5210" value="1"/>
  <variable name="X(15,4,4)" index="5295" value="1"/>
  <variable name="X(15,14,1)" index="5376" value="1"/>
  <variable name="X(15,32,11)" index="5470" value="1"/>
 </variables>
</CPLEXSolution>
